NAME: gr05
TYPE: TSP
COMMENT: 05-city problem (Groetschel)
DIMENSION: 05
EDGE_WEIGHT_TYPE: EXPLICIT
EDGE_WEIGHT_FORMAT: LOWER_DIAG_ROW 
EDGE_WEIGHT_SECTION
 0 633 0 257 390 0 91 661 228 0 412 227
 169 383 0
EOF
